p cnf 23 18
1 2 3 0
1 -2 4 0
-1 2 5 0
6 7 8 1 2 9 0
6 7 8 1 -2 12 0
6 7 8 -1 2 10 0
6 7 -8 1 2 13 0
6 7 -8 1 -2 11 0
6 7 -8 -1 2 14 0
6 -7 8 1 2 15 0
6 -7 8 1 -2 16 0
6 -7 8 -1 2 17 0
6 -7 -8 1 2 18 0
6 -7 -8 1 -2 21 0
6 -7 -8 -1 2 23 0
-6 7 8 1 2 20 0
-6 7 8 1 -2 22 0
-6 7 8 -1 2 19 0
